c WARNING: for repeatability, setting FPU to use double precision
d VARIABLES            73340        
d CONSTRAINTS          260348       
c ============================[ Problem Statistics ]=============================
c |                                                                             |
c |  Number of variables:         73340                                         |
c |  Number of clauses:          260348                                         |
c |  Parse time:                   0.04 s                                       |
c |                                                                             |
c ============================[ Search Statistics ]==============================
c | Conflicts |          ORIGINAL         |          LEARNT          | Progress |
c |           |    Vars  Clauses Literals |    Limit  Clauses Lit/Cl |          |
c ===============================================================================
c |       100 |   54069   210718   529511 |    77263       99     57 | 26.276 % |
c |       250 |   54069   210718   529511 |    84989      249     26 | 26.276 % |
c |       475 |   54069   210714   529501 |    93488      474     23 | 26.276 % |
c |       812 |   54069   210714   529501 |   102837      811     20 | 26.276 % |
c |      1318 |   54069   210714   529501 |   113121     1317     17 | 26.276 % |
c |      2077 |   54069   210714   529501 |   124433     2076     19 | 26.276 % |
c |      3216 |   54069   210714   529501 |   136876     3215     32 | 26.276 % |
c |      4924 |   54069   210714   529501 |   150564     4923     28 | 26.276 % |
c |      7486 |   54069   210714   529501 |   165620     7485     37 | 26.276 % |
c |     11330 |   54066   210702   529471 |   182182    11326     39 | 26.280 % |
c |     17096 |   54066   210702   529471 |   200401    17092     51 | 26.280 % |
c |     25745 |   54066   210702   529471 |   220441    25741     64 | 26.280 % |
c |     38719 |   54066   210702   529471 |   242485    38715     83 | 26.280 % |
c |     58180 |   54066   210702   529471 |   266733    58176     93 | 26.280 % |
c |     87372 |   54066   210702   529471 |   293407    87368    104 | 26.280 % |
c |    131161 |   54066   210702   529471 |   322747   131157    113 | 26.280 % |
c |    196845 |   54066   210702   529471 |   355022   196841    117 | 26.280 % |
c |    295371 |   54066   210702   529471 |   390524   295367    115 | 26.280 % |
c |    443160 |   54066   210702   529471 |   429577    69354     98 | 26.280 % |
c |    664843 |   54066   210702   529471 |   472535   291037    102 | 26.280 % |
c |    997368 |   54066   210702   529471 |   519788   167154     67 | 26.280 % |
c |   1496156 |   54066   210702   529471 |   571767   160074     77 | 26.280 % |
c |   2244338 |   54066   210702   529471 |   628944   357108     75 | 26.280 % |
c |   3366612 |   54066   210702   529471 |   691838   268434     61 | 26.280 % |
c |   5050023 |   54066   210702   529471 |   761022   599573     68 | 26.280 % |
c ===============================================================================
c restarts              : 10025
c conflicts             : 6192473        (3454 /sec)
c decisions             : 12195545       (0.00 % random) (6802 /sec)
c propagations          : 4190543373     (2337096 /sec)
c conflict literals     : 579079362      (28.94 % deleted)
d RESTARTS             10025
d FAILURES             6192473      
d NODES                12195545     
d BACKTRACKS           12195545     
d PROPAGATIONS         4190543373   
d NOGOODSIZE           93.51 
d MEMORY               738.00 
d TIME                 1793.06 

s UNKNOWN
